
Gurobi 7.0.2 (linux64, Matlab) logging started Sun Sep  2 08:56:04 2018


Gurobi 7.0.2 (linux64) logging started Sun Sep  2 08:56:04 2018

Optimize a model with 521819 rows, 1253087 columns and 5088694 nonzeros
Coefficient statistics:
  Matrix range     [2e-01, 7e+01]
  Objective range  [2e-04, 5e+04]
  Bounds range     [1e-01, 1e+03]
  RHS range        [1e-01, 5e+02]
Iteration    Objective       Primal Inf.    Dual Inf.      Time
       0   -5.2618992e+06   2.184285e-04   0.000000e+00      1s
       3   -5.2618992e+06   0.000000e+00   0.000000e+00      2s

Solved in 3 iterations and 1.94 seconds
Optimal objective -5.261899216e+06
